(declare-fun a_ack!19 () (_ BitVec 64))
(declare-fun b_ack!18 () (_ BitVec 64))
(assert (let ((a!1 ((_ extract 0 0)
             (ite (fp.isInfinite ((_ to_fp 11 53) a_ack!19)) #x01 #x00))))
  (not (= a!1 #b1))))
(assert (let ((a!1 ((_ extract 0 0)
             (ite (fp.isInfinite ((_ to_fp 11 53) b_ack!18)) #x01 #x00))))
  (not (= a!1 #b1))))
(assert (fp.lt (fp.abs ((_ to_fp 11 53) a_ack!19)) (fp.abs ((_ to_fp 11 53) b_ack!18))))
(assert (fp.eq (fp.abs ((_ to_fp 11 53) a_ack!19)) ((_ to_fp 11 53) #x0000000000000000)))

(check-sat)
(exit)
